25032.0
0 0 1 0 1 0 1 0 1 0 0 0 0 1 0 0 1 1 1 0 0 0 0 1 1 1 0 0 1 0 


2 4 6 29 61 87 94 126 145 156 175 180 182 189 190 197 

10 28 32 43 45 60 84 104 106 111 124 128 167 174 178 193 

1 5 30 31 35 42 55 71 72 86 91 97 113 114 123 140 183 184 192 

36 37 41 44 54 57 63 73 78 82 115 119 120 133 135 154 171 185 




12 13 16 17 46 64 76 85 95 109 136 137 158 159 160 168 198 


18 21 33 39 47 51 53 79 101 108 125 147 157 169 181 191 
27 49 67 81 98 110 118 122 129 151 153 173 188 
0 15 20 25 40 56 58 62 70 103 112 141 148 165 




22 24 66 74 75 77 80 134 139 152 162 164 166 170 177 179 187 
3 8 19 23 26 38 50 52 88 105 107 131 146 150 161 163 176 
59 65 69 83 89 92 93 102 117 121 127 132 143 144 149 194 195 196 


7 9 11 14 34 48 68 90 96 99 100 116 130 138 142 155 172 186 199 

